p cnf 42 279
1 4 7 10 13 16 19 22 25 28 31 34 37 40 0
2 5 8 11 14 17 20 23 26 29 32 35 38 41 0
3 6 9 12 15 18 21 24 27 30 33 36 39 42 0
-1 -2 0
-1 -3 0
-2 -3 0
-4 -5 0
-4 -6 0
-5 -6 0
-7 -8 0
-7 -9 0
-8 -9 0
-10 -11 0
-10 -12 0
-11 -12 0
-13 -14 0
-13 -15 0
-14 -15 0
-16 -17 0
-16 -18 0
-17 -18 0
-19 -20 0
-19 -21 0
-20 -21 0
-22 -23 0
-22 -24 0
-23 -24 0
-25 -26 0
-25 -27 0
-26 -27 0
-28 -29 0
-28 -30 0
-29 -30 0
-31 -32 0
-31 -33 0
-32 -33 0
-34 -35 0
-34 -36 0
-35 -36 0
-37 -38 0
-37 -39 0
-38 -39 0
-40 -41 0
-40 -42 0
-41 -42 0
-1 -11 0
-1 -12 0
-2 -10 0
-2 -12 0
-3 -10 0
-3 -11 0
-1 -17 0
-1 -18 0
-2 -16 0
-2 -18 0
-3 -16 0
-3 -17 0
-1 -26 0
-1 -27 0
-2 -25 0
-2 -27 0
-3 -25 0
-3 -26 0
-1 -35 0
-1 -36 0
-2 -34 0
-2 -36 0
-3 -34 0
-3 -35 0
-1 -38 0
-1 -39 0
-2 -37 0
-2 -39 0
-3 -37 0
-3 -38 0
-4 -20 0
-4 -21 0
-5 -19 0
-5 -21 0
-6 -19 0
-6 -20 0
-4 -29 0
-4 -30 0
-5 -28 0
-5 -30 0
-6 -28 0
-6 -29 0
-4 -35 0
-4 -36 0
-5 -34 0
-5 -36 0
-6 -34 0
-6 -35 0
-4 -38 0
-4 -39 0
-5 -37 0
-5 -39 0
-6 -37 0
-6 -38 0
-7 -17 0
-7 -18 0
-8 -16 0
-8 -18 0
-9 -16 0
-9 -17 0
-7 -20 0
-7 -21 0
-8 -19 0
-8 -21 0
-9 -19 0
-9 -20 0
-7 -23 0
-7 -24 0
-8 -22 0
-8 -24 0
-9 -22 0
-9 -23 0
-7 -35 0
-7 -36 0
-8 -34 0
-8 -36 0
-9 -34 0
-9 -35 0
-7 -38 0
-7 -39 0
-8 -37 0
-8 -39 0
-9 -37 0
-9 -38 0
-10 -14 0
-10 -15 0
-11 -13 0
-11 -15 0
-12 -13 0
-12 -14 0
-10 -32 0
-10 -33 0
-11 -31 0
-11 -33 0
-12 -31 0
-12 -32 0
-10 -41 0
-10 -42 0
-11 -40 0
-11 -42 0
-12 -40 0
-12 -41 0
-13 -20 0
-13 -21 0
-14 -19 0
-14 -21 0
-15 -19 0
-15 -20 0
-13 -29 0
-13 -30 0
-14 -28 0
-14 -30 0
-15 -28 0
-15 -29 0
-13 -38 0
-13 -39 0
-14 -37 0
-14 -39 0
-15 -37 0
-15 -38 0
-16 -20 0
-16 -21 0
-17 -19 0
-17 -21 0
-18 -19 0
-18 -20 0
-16 -23 0
-16 -24 0
-17 -22 0
-17 -24 0
-18 -22 0
-18 -23 0
-16 -26 0
-16 -27 0
-17 -25 0
-17 -27 0
-18 -25 0
-18 -26 0
-16 -29 0
-16 -30 0
-17 -28 0
-17 -30 0
-18 -28 0
-18 -29 0
-16 -35 0
-16 -36 0
-17 -34 0
-17 -36 0
-18 -34 0
-18 -35 0
-19 -23 0
-19 -24 0
-20 -22 0
-20 -24 0
-21 -22 0
-21 -23 0
-19 -26 0
-19 -27 0
-20 -25 0
-20 -27 0
-21 -25 0
-21 -26 0
-19 -29 0
-19 -30 0
-20 -28 0
-20 -30 0
-21 -28 0
-21 -29 0
-19 -32 0
-19 -33 0
-20 -31 0
-20 -33 0
-21 -31 0
-21 -32 0
-19 -38 0
-19 -39 0
-20 -37 0
-20 -39 0
-21 -37 0
-21 -38 0
-22 -29 0
-22 -30 0
-23 -28 0
-23 -30 0
-24 -28 0
-24 -29 0
-22 -38 0
-22 -39 0
-23 -37 0
-23 -39 0
-24 -37 0
-24 -38 0
-22 -41 0
-22 -42 0
-23 -40 0
-23 -42 0
-24 -40 0
-24 -41 0
-25 -32 0
-25 -33 0
-26 -31 0
-26 -33 0
-27 -31 0
-27 -32 0
-25 -38 0
-25 -39 0
-26 -37 0
-26 -39 0
-27 -37 0
-27 -38 0
-28 -32 0
-28 -33 0
-29 -31 0
-29 -33 0
-30 -31 0
-30 -32 0
-31 -35 0
-31 -36 0
-32 -34 0
-32 -36 0
-33 -34 0
-33 -35 0
-31 -41 0
-31 -42 0
-32 -40 0
-32 -42 0
-33 -40 0
-33 -41 0
-37 -41 0
-37 -42 0
-38 -40 0
-38 -42 0
-39 -40 0
-39 -41 0
